NAME: custom51
COMMENT: Randomly generated TSP problem
TYPE: TSP
DIMENSION: 51
EDGE_WEIGHT_TYPE: SPECIAL
NODE_COORD_SECTION
1 936.0 894.0
2 831.0 909.0
3 915.0 390.0
4 608.0 975.0
5 9.0 503.0
6 414.0 87.0
7 461.0 16.0
8 118.0 656.0
9 70.0 575.0
10 162.0 171.0
11 480.0 107.0
12 826.0 785.0
13 540.0 489.0
14 59.0 678.0
15 704.0 375.0
16 351.0 989.0
17 205.0 388.0
18 515.0 12.0
19 499.0 528.0
20 753.0 275.0
21 48.0 399.0
22 597.0 966.0
23 113.0 377.0
24 784.0 78.0
25 255.0 668.0
26 1000.0 787.0
27 701.0 564.0
28 197.0 219.0
29 935.0 993.0
30 204.0 78.0
31 651.0 702.0
32 459.0 318.0
33 762.0 689.0
34 190.0 842.0
35 623.0 898.0
36 912.0 79.0
37 458.0 295.0
38 388.0 478.0
39 464.0 839.0
40 95.0 105.0
41 423.0 519.0
42 786.0 931.0
43 532.0 930.0
44 256.0 687.0
45 491.0 337.0
46 365.0 44.0
47 475.0 981.0
48 149.0 528.0
49 189.0 708.0
50 912.0 667.0
51 91.0 373.0
EOF
