NAME: custom101
COMMENT: Randomly generated TSP problem
TYPE: TSP
DIMENSION: 101
EDGE_WEIGHT_TYPE: SPECIAL
NODE_COORD_SECTION
1 356.0 256.0
2 191.0 395.0
3 154.0 146.0
4 786.0 714.0
5 307.0 407.0
6 769.0 514.0
7 281.0 565.0
8 180.0 492.0
9 693.0 974.0
10 697.0 996.0
11 816.0 696.0
12 66.0 628.0
13 288.0 650.0
14 667.0 70.0
15 248.0 64.0
16 887.0 784.0
17 472.0 910.0
18 378.0 146.0
19 486.0 723.0
20 83.0 482.0
21 4.0 216.0
22 962.0 759.0
23 911.0 631.0
24 743.0 596.0
25 731.0 383.0
26 844.0 525.0
27 941.0 324.0
28 325.0 819.0
29 906.0 627.0
30 45.0 979.0
31 599.0 60.0
32 71.0 438.0
33 477.0 350.0
34 364.0 847.0
35 986.0 462.0
36 21.0 709.0
37 698.0 609.0
38 333.0 356.0
39 510.0 55.0
40 972.0 128.0
41 59.0 740.0
42 880.0 861.0
43 635.0 344.0
44 648.0 251.0
45 131.0 552.0
46 985.0 245.0
47 620.0 870.0
48 733.0 533.0
49 822.0 829.0
50 743.0 806.0
51 624.0 20.0
52 117.0 110.0
53 24.0 483.0
54 405.0 859.0
55 921.0 285.0
56 890.0 796.0
57 437.0 740.0
58 605.0 767.0
59 45.0 121.0
60 133.0 157.0
61 297.0 735.0
62 334.0 128.0
63 621.0 115.0
64 309.0 632.0
65 460.0 673.0
66 211.0 986.0
67 377.0 542.0
68 74.0 28.0
69 133.0 915.0
70 373.0 588.0
71 349.0 195.0
72 32.0 154.0
73 261.0 229.0
74 869.0 836.0
75 847.0 540.0
76 760.0 923.0
77 64.0 7.0
78 187.0 832.0
79 156.0 559.0
80 502.0 658.0
81 986.0 504.0
82 498.0 799.0
83 722.0 21.0
84 721.0 824.0
85 551.0 821.0
86 936.0 151.0
87 486.0 278.0
88 822.0 122.0
89 387.0 500.0
90 278.0 264.0
91 54.0 352.0
92 86.0 979.0
93 903.0 650.0
94 65.0 97.0
95 580.0 605.0
96 525.0 96.0
97 556.0 105.0
98 557.0 875.0
99 119.0 717.0
100 458.0 335.0
101 861.0 107.0
EOF
