NAME: custom100
COMMENT: Randomly generated TSP problem
TYPE: TSP
DIMENSION: 100
EDGE_WEIGHT_TYPE: SPECIAL
NODE_COORD_SECTION
1 592.0 178.0
2 525.0 791.0
3 886.0 816.0
4 192.0 50.0
5 190.0 3.0
6 224.0 394.0
7 253.0 751.0
8 756.0 534.0
9 35.0 828.0
10 709.0 649.0
11 970.0 237.0
12 404.0 911.0
13 477.0 380.0
14 393.0 267.0
15 380.0 588.0
16 440.0 600.0
17 754.0 85.0
18 835.0 511.0
19 572.0 951.0
20 768.0 436.0
21 952.0 537.0
22 589.0 781.0
23 234.0 584.0
24 334.0 906.0
25 399.0 898.0
26 574.0 754.0
27 620.0 683.0
28 731.0 45.0
29 718.0 320.0
30 435.0 745.0
31 776.0 670.0
32 861.0 338.0
33 104.0 833.0
34 566.0 34.0
35 142.0 259.0
36 43.0 929.0
37 331.0 587.0
38 346.0 151.0
39 126.0 975.0
40 148.0 203.0
41 471.0 680.0
42 58.0 442.0
43 617.0 32.0
44 832.0 398.0
45 918.0 914.0
46 859.0 151.0
47 875.0 236.0
48 632.0 692.0
49 389.0 133.0
50 169.0 350.0
51 834.0 816.0
52 152.0 318.0
53 847.0 57.0
54 454.0 22.0
55 764.0 126.0
56 569.0 667.0
57 979.0 612.0
58 72.0 196.0
59 763.0 77.0
60 533.0 218.0
61 741.0 805.0
62 772.0 69.0
63 957.0 947.0
64 428.0 279.0
65 438.0 520.0
66 150.0 678.0
67 934.0 894.0
68 325.0 321.0
69 83.0 207.0
70 679.0 18.0
71 442.0 200.0
72 957.0 809.0
73 55.0 987.0
74 639.0 78.0
75 836.0 308.0
76 744.0 719.0
77 773.0 131.0
78 601.0 37.0
79 852.0 754.0
80 501.0 456.0
81 888.0 977.0
82 255.0 608.0
83 385.0 623.0
84 390.0 248.0
85 512.0 900.0
86 411.0 419.0
87 174.0 908.0
88 360.0 247.0
89 531.0 334.0
90 463.0 636.0
91 62.0 63.0
92 360.0 29.0
93 474.0 579.0
94 989.0 975.0
95 315.0 742.0
96 55.0 997.0
97 825.0 25.0
98 661.0 665.0
99 262.0 432.0
100 50.0 56.0
EOF
