NAME: custom50
COMMENT: Randomly generated TSP problem
TYPE: TSP
DIMENSION: 50
EDGE_WEIGHT_TYPE: SPECIAL
NODE_COORD_SECTION
1 374.0 363.0
2 119.0 509.0
3 131.0 384.0
4 343.0 756.0
5 27.0 911.0
6 379.0 872.0
7 197.0 510.0
8 563.0 165.0
9 708.0 43.0
10 790.0 179.0
11 341.0 648.0
12 709.0 813.0
13 190.0 859.0
14 728.0 967.0
15 424.0 52.0
16 533.0 702.0
17 910.0 371.0
18 469.0 889.0
19 78.0 750.0
20 52.0 810.0
21 48.0 95.0
22 511.0 477.0
23 506.0 241.0
24 626.0 154.0
25 337.0 410.0
26 606.0 26.0
27 656.0 600.0
28 502.0 43.0
29 773.0 60.0
30 677.0 770.0
31 423.0 51.0
32 437.0 596.0
33 816.0 556.0
34 531.0 766.0
35 85.0 127.0
36 283.0 475.0
37 207.0 363.0
38 947.0 155.0
39 246.0 586.0
40 991.0 607.0
41 659.0 880.0
42 717.0 485.0
43 843.0 302.0
44 977.0 242.0
45 682.0 237.0
46 691.0 10.0
47 270.0 125.0
48 533.0 639.0
49 181.0 707.0
50 345.0 270.0
EOF
